100
21 88
29 34
10 43
9 78
20 90
13 81
5 83
15 55
23 10
26 10
28 50
22 74
29 50
20 78
5 60
0 83
7 66
12 9
9 57
9 81
4 81
4 32
10 89
0 32
22 55
8 68
5 23
3 32
10 4
6 15
18 57
25 16
27 67
26 37
28 68
19 75
20 84
4 65
19 0
17 26
6 44
17 65
17 93
7 92
27 59
26 65
3 57
24 92
29 10
20 52
17 0
14 79
17 39
21 10
28 46
10 99
4 87
0 9
1 62
3 30
5 60
19 90
22 81
23 45
17 63
3 74
23 77
26 0
12 50
9 8
27 3
22 39
9 23
15 74
14 2
23 11
11 52
13 32
10 35
8 76
12 27
24 14
6 56
8 21
1 80
13 7
29 88
13 77
12 48
10 1
2 56
0 65
0 13
8 45
4 80
7 46
12 76
14 64
7 78
29 95
